p tdp 122 121
87 8
27 42
71 112
96 19
53 38
68 111
95 68
100 114
29 121
18 73
77 111
118 88
107 48
108 116
83 22
23 90
16 9
56 62
63 81
31 85
91 74
76 54
83 14
97 83
87 67
59 111
63 27
6 49
24 80
91 41
75 20
93 3
58 4
1 96
83 41
117 92
87 54
16 119
52 34
31 22
120 55
10 73
104 89
20 78
99 45
12 21
33 92
106 109
103 50
30 66
101 85
3 5
25 120
72 98
40 28
73 24
42 111
98 104
12 30
90 45
37 115
51 117
80 122
110 69
22 11
34 26
15 51
32 37
103 35
79 94
116 43
93 48
78 69
57 4
17 84
53 119
121 60
110 52
7 88
112 72
57 1
33 54
45 42
113 29
109 56
41 50
44 36
47 79
86 46
6 15
82 69
12 13
118 30
61 38
21 73
105 117
90 25
70 2
84 109
65 64
26 7
108 9
102 39
32 88
2 86
71 100
37 51
111 39
28 79
64 102
109 98
107 36
22 119
2 6
40 74
48 104
25 93
91 29
98 92
65 31
97 1
